m = 20;
n = 20;
map = [|0,1,1,0,0,1,1,0,1,0,0,1,1,0,0,1,1,0,1,0
       |0,0,1,0,0,0,1,0,0,0,0,1,1,0,0,0,1,0,1,0
       |0,0,1,0,0,1,0,1,1,0,0,0,1,0,0,1,0,1,1,0
       |0,0,1,0,1,1,0,0,1,0,0,1,0,0,0,1,1,0,1,0
       |0,0,1,0,1,1,0,1,1,0,0,0,1,0,0,1,1,0,1,0
       |0,0,1,0,1,1,1,1,0,0,0,1,0,0,0,1,1,0,1,0
       |0,0,1,0,1,0,0,0,1,0,0,1,1,0,0,1,1,0,1,0
       |0,0,1,0,1,0,0,0,1,0,0,1,1,0,0,1,1,0,1,0
       |0,0,1,0,1,0,0,1,1,0,0,0,0,0,0,1,1,0,1,0                                       
       |0,0,0,0,0,0,0,0,0,0,0,0,0,0,0,0,0,0,0,0
       |0,1,1,0,0,1,1,0,1,0,0,1,1,0,0,1,1,0,1,0
       |0,0,1,0,0,0,1,0,0,0,0,1,1,0,0,1,1,0,1,0
       |0,0,1,0,0,1,0,1,1,0,0,0,1,0,0,1,0,1,1,0
       |0,0,1,0,1,1,0,0,1,0,0,1,0,0,0,1,1,0,1,0
       |0,0,1,0,1,1,0,1,1,0,0,0,1,0,0,1,1,0,1,0
       |0,0,1,0,1,1,1,1,0,0,0,1,0,0,0,1,1,0,1,0
       |0,0,1,0,1,0,0,0,1,0,0,1,1,0,0,1,1,0,1,0
       |0,0,1,0,1,0,0,0,1,0,0,1,1,0,0,1,1,0,1,0
       |0,0,1,0,1,0,0,1,1,0,0,0,0,0,0,1,1,0,1,0                                       
       |0,0,0,0,0,0,0,0,0,0,0,0,0,0,0,0,0,0,0,0|]                                                                                                                                                                             
%cX = 0; %vertical
%cY = 0; %horizontal
%tX = 7; %vertical
%tY = 3; %horizontal                                                                         
%steps = 15





















;
